250:1000:30:1000:1000
14850.1:14850.1
250:1000:20:1000:1000
14854.7:14854.7
250:1000:20:1000:1000
14854.7:14854.7
250:1000:20:1000:1000
14854.7:14854.7
250:1000:20:1000:1000
14854.6:14854.6
250:1000:10:1000:1000
15313.7:15313.7
250:1000:20:1000:1000
15145.5:15145.5
250:3000:20:1000:1000
15148.3:15148.3
250:5000:20:1000:1000
15079.4:15079.4
ZAPISANE ITERACJE: 
Iteracja[5]:
1 73 45 13 14 92 198 204 63 174 35 175 144 146 182 12 76 156 5 77 40 157 29 215 185 164 26 36 42 133 130 95 159 181 154 124 178 172 2 186 127 108 192 18 9 160 43 119 170 25 199 177 100 37 141 66 4 111 195 7 180 33 122 38 115 80 193 3 166 135 75 88 61 81 55 191 197 70 196 147 189 21 120 151 58 96 103 19 91 167 150 10 27 6 140 67 60 139 169 250 52 129 109 87 131 62 90 79 117 65 214 39 71 51 163 110 59 56 15 22 102 49 179 30 104 48 86 126 46 118 153 20 97 31 84 113 158 188 138 105 28 106 41 161 194 123 82 8 68 83 89 152 162 112 32 176 44 17 64 207 168 128 137 23 101 116 142 94 98 53 184 190 125 171 114 24 145 136 143 72 230 249 78 155 50 165 47 248 173 74 93 132 247 99 69 134 57 34 149 183 121 54 11 148 85 16 232 187 210 239 226 219 220 218 242 216 235 237 246 231 245 233 241 208 234 201 227 202 238 228 203 205 244 211 209 200 229 243 240 236 221 225 212 224 222 206 223 217 213 107 Odleglosc: 16147.3

ZAPISANE ITERACJE: 
Iteracja[10]:
1 73 45 13 14 92 198 204 63 174 35 175 144 146 182 12 76 156 5 77 40 157 29 215 185 164 26 36 42 133 130 95 159 181 154 124 178 172 2 186 127 108 192 18 9 160 43 119 170 25 199 177 100 37 141 66 4 111 195 7 180 33 122 38 115 80 193 3 166 135 75 88 61 81 55 191 197 70 196 147 189 21 120 151 58 96 103 19 91 167 150 10 27 6 140 67 60 139 169 250 52 129 109 87 131 62 90 79 117 65 214 39 71 51 163 110 59 56 15 22 102 49 179 30 104 48 86 126 46 118 153 20 97 31 84 113 158 188 138 105 28 106 41 161 194 123 82 8 68 83 89 152 162 112 32 176 44 17 64 207 168 128 137 23 101 116 142 94 98 53 184 190 125 171 114 24 145 136 143 72 230 249 78 155 50 165 47 248 173 74 93 132 247 99 69 134 57 34 149 183 121 54 11 148 85 16 187 232 210 239 226 219 220 218 242 216 235 237 246 231 245 233 241 208 234 201 227 202 238 228 203 205 244 211 209 200 229 243 240 236 221 225 212 224 222 206 223 217 213 107 Odleglosc: 15943.7

ZAPISANE ITERACJE: 
Iteracja[20]:
1 73 45 13 14 92 198 204 63 174 35 175 144 146 182 12 76 156 5 77 40 157 29 215 185 164 26 36 42 133 130 95 159 181 154 124 178 172 2 186 127 108 192 18 9 160 43 119 170 25 199 177 100 37 141 66 4 111 195 7 180 33 122 38 115 80 193 3 166 135 75 88 61 81 55 191 197 70 196 147 189 21 120 151 58 96 103 19 91 167 150 10 27 6 140 67 60 139 169 250 52 129 109 87 131 62 90 79 117 65 214 39 71 51 163 110 59 56 15 22 102 49 179 30 104 48 86 126 46 118 153 20 97 31 84 113 158 188 138 105 28 106 41 161 194 123 82 8 68 83 89 152 162 112 32 176 44 17 64 207 168 128 137 23 101 116 142 94 98 53 184 190 125 171 114 24 145 136 143 72 230 249 78 155 50 165 47 248 173 74 93 132 247 99 69 134 57 34 149 183 121 54 11 148 85 16 107 232 210 239 226 219 220 218 242 216 235 237 246 231 245 233 241 208 234 201 227 202 238 228 203 205 244 211 209 200 229 243 240 236 221 225 212 224 222 206 223 217 213 187 Odleglosc: 15862.6

ZAPISANE ITERACJE: 
Iteracja[50]:
1 73 45 13 14 92 198 204 63 174 35 175 144 146 182 12 76 156 5 77 40 157 29 215 185 164 26 36 42 133 130 95 159 181 154 124 178 172 2 186 127 108 192 85 9 160 43 119 170 25 199 177 100 37 141 66 4 111 195 7 180 33 122 38 115 80 193 3 166 135 75 88 61 81 55 191 197 70 196 147 189 21 120 151 58 96 103 19 91 167 150 10 27 6 140 67 60 139 169 250 52 129 109 87 131 62 90 79 117 65 214 39 71 51 163 110 59 56 15 22 102 49 179 30 104 48 86 126 46 118 153 20 97 31 84 113 158 188 138 105 28 106 41 161 194 123 82 8 68 83 89 152 162 112 32 176 44 17 64 207 168 128 137 23 101 116 142 94 98 53 184 190 125 171 114 24 145 136 143 72 230 249 78 155 50 165 47 248 173 74 93 132 247 99 69 134 57 34 149 183 121 54 11 148 18 16 107 232 210 239 226 219 220 218 242 216 235 237 246 231 245 233 241 208 234 201 227 202 238 228 203 205 244 211 209 200 229 243 240 236 221 225 212 224 222 206 223 217 213 187 Odleglosc: 15779.9

ZAPISANE ITERACJE: 
Iteracja[100]:
1 73 45 13 14 92 187 204 63 174 35 175 144 146 182 12 76 156 5 77 40 157 29 215 185 164 26 36 42 133 130 95 159 181 154 124 178 172 2 186 127 108 192 85 9 160 43 119 170 25 199 177 100 37 141 66 4 111 195 7 180 33 122 38 115 80 193 3 166 135 75 88 61 81 55 191 197 70 196 147 189 21 120 151 58 96 103 19 91 167 150 10 27 6 140 67 60 139 169 250 52 129 109 87 131 62 90 79 117 65 214 39 71 51 163 110 59 56 15 22 102 49 179 30 104 48 86 126 46 118 153 20 97 31 84 113 158 188 138 105 28 106 41 161 194 123 82 8 68 83 89 152 162 112 32 176 44 17 64 207 168 128 137 23 101 116 142 94 98 53 184 190 125 171 114 24 145 136 143 72 230 249 78 155 50 165 47 248 173 74 93 132 247 99 69 134 57 34 149 183 121 54 11 148 18 16 107 232 210 239 226 219 220 218 242 216 235 237 246 231 245 233 241 208 234 201 227 202 238 228 203 205 244 211 209 200 229 243 240 236 221 225 212 224 222 206 223 217 213 198 Odleglosc: 15734.7

ZAPISANE ITERACJE: 
Iteracja[500]:
1 73 45 13 14 92 187 204 63 174 35 175 144 146 182 12 76 156 5 77 40 157 29 215 185 164 26 36 42 133 130 95 159 181 154 124 178 172 2 186 127 108 192 85 9 160 43 119 170 25 199 177 100 37 141 66 4 111 195 7 180 33 122 38 115 80 193 3 166 135 75 88 61 81 55 191 197 70 196 147 189 21 120 151 58 96 103 19 91 167 150 10 27 6 140 67 60 139 169 250 52 129 109 87 131 62 90 79 117 65 214 39 71 51 163 110 59 56 15 22 102 49 179 30 104 48 86 126 46 118 153 20 97 31 84 113 158 188 138 105 28 106 41 161 194 123 82 8 68 83 89 152 162 112 32 176 44 17 64 207 168 128 137 23 101 116 142 94 98 53 184 190 125 171 114 24 145 136 143 72 230 249 78 155 50 165 47 248 173 74 93 132 247 99 69 134 57 34 149 183 121 54 11 148 18 16 107 232 210 239 226 219 220 218 242 216 235 246 237 231 245 233 241 208 234 201 227 202 238 228 203 205 244 211 209 200 229 243 240 236 221 225 212 224 222 206 223 217 213 198 Odleglosc: 15699.7

L. iteracji | Czas Tabo | Czas dywersyfikacji | L. zmian w dywersyfikacji | Mno¿nik kary Tabo
1000:20:10:300:1.001
15020.8:15020.8
0 44 197 91 13 12 62 203 173 186 34 174 143 145 181 11 75 155 4 76 39 156 28 184 214 163 25 35 41 129 94 17 158 180 153 123 177 171 1 185 126 107 84 191 8 159 42 118 169 198 24 176 36 99 140 65 3 110 194 6 37 121 32 179 79 114 74 134 165 192 2 87 60 80 54 190 196 69 195 146 188 20 119 150 57 95 102 18 90 166 149 9 26 5 139 66 59 138 168 249 51 128 108 86 130 61 89 116 78 64 213 38 70 50 162 109 58 55 14 229 21 101 48 178 29 103 47 85 45 117 152 96 19 30 83 112 157 187 137 104 27 105 40 160 193 122 81 7 67 82 88 151 161 111 31 175 43 16 127 167 206 63 136 22 100 115 141 93 97 52 183 189 124 71 170 113 23 144 135 142 125 106 77 72 154 49 46 247 172 73 92 131 246 68 133 231 56 33 148 182 53 120 10 147 132 15 164 98 209 238 225 218 219 217 241 215 234 245 236 230 244 232 240 207 233 200 226 201 237 227 202 204 243 208 210 199 228 242 239 235 220 224 211 223 221 205 222 216 212 248 



